77      4       
10      10      10      10      
0       0       0       0       0       16      2       3       5       6       7       8       9       10      11      12      13      14      17      18      19      22      
6       2       4       1       1       7       4       20      24      25      26      29      36      
5       0       0       6       6       5       4       24      25      26      36      
7       8       7       8       4       8       15      16      21      28      32      33      34      35      
5       0       0       0       9       13      21      23      27      28      30      34      35      39      40      43      44      47      50      
10      7       0       0       7       10      20      25      26      28      31      36      39      40      43      50      
4       5       5       4       4       8       16      24      27      28      30      36      47      49      
10      0       0       0       6       10      23      25      28      29      30      35      40      43      49      50      
8       0       0       0       9       10      23      28      31      34      35      39      40      42      43      47      
5       0       0       0       10      12      27      30      31      32      35      36      39      40      44      46      47      50      
9       0       0       6       4       13      27      32      35      38      39      40      42      44      46      47      48      49      50      
3       8       6       8       4       11      27      31      33      35      38      40      41      44      46      48      50      
7       0       0       0       10      9       23      26      28      32      39      44      50      51      56      
5       6       0       6       6       8       23      27      30      31      38      40      42      43      
9       7       0       0       5       9       27      30      38      39      46      47      48      49      50      
9       0       0       0       7       7       23      38      40      43      44      56      58      
10      0       0       0       9       9       35      36      37      38      40      41      44      46      53      
8       0       0       0       9       12      30      37      38      43      46      48      49      52      53      58      63      64      
9       7       0       6       5       9       28      35      37      43      44      48      53      56      64      
8       7       0       0       4       9       34      37      41      46      48      51      52      58      64      
1       6       5       4       3       9       31      38      41      42      46      51      52      56      57      
3       0       6       5       5       9       35      39      43      44      45      47      48      51      64      
10      0       6       0       3       8       37      41      46      48      53      57      63      64      
2       0       0       0       10      8       37      44      50      52      53      55      56      63      
9       0       0       0       10      6       37      41      46      47      48      52      
4       0       0       0       10      7       35      45      46      47      55      62      64      
3       0       0       0       10      6       37      51      52      53      55      56      
9       0       0       0       10      7       38      45      46      57      59      63      71      
6       7       5       7       5       7       44      46      53      58      61      63      76      
3       0       0       0       7       5       41      45      56      57      62      
8       7       0       5       4       13      49      54      55      58      59      60      61      62      63      70      74      75      76      
3       0       0       0       10      7       45      52      54      55      59      63      64      
2       7       0       0       4       6       45      47      52      53      55      62      
2       3       5       3       5       10      53      56      57      60      61      62      63      71      75      76      
10      5       0       5       4       9       52      54      58      59      61      70      72      73      75      
8       4       0       6       5       8       56      58      60      61      63      67      70      75      
9       3       0       5       5       6       45      54      60      62      71      74      
2       0       0       0       10      9       55      60      61      62      70      72      74      75      76      
6       0       0       0       10      7       54      57      59      60      61      62      63      
3       0       0       6       6       6       51      52      64      69      73      76      
1       8       0       5       6       10      54      55      59      60      69      70      71      73      74      76      
8       0       0       0       10      7       53      61      63      70      71      74      76      
3       3       4       6       5       8       57      61      66      67      71      73      75      76      
8       4       0       4       4       5       54      57      69      74      75      
7       8       0       0       6       8       61      65      66      67      70      73      75      76      
5       2       3       5       4       8       60      67      68      69      70      72      73      75      
6       0       0       0       10      5       58      59      61      67      70      
10      0       0       0       10      6       60      67      68      69      73      74      
1       0       7       0       7       6       65      66      67      68      69      72      
2       0       0       0       10      6       65      66      67      68      69      71      
4       5       6       3       6       4       59      68      70      71      
10      0       0       0       10      3       60      67      71      
3       4       0       8       4       3       59      67      72      
5       3       7       5       5       4       65      66      67      68      
8       6       0       0       6       4       65      66      67      68      
8       5       8       7       2       2       59      74      
9       7       6       0       5       3       65      70      72      
2       0       0       0       10      3       65      68      71      
10      0       0       0       10      2       65      66      
3       5       0       7       4       2       65      66      
1       8       6       0       4       2       68      69      
2       5       2       3       8       2       67      73      
9       8       0       0       4       2       66      72      
7       5       4       5       6       2       67      74      
1       3       6       5       4       1       77      
10      0       8       0       2       1       77      
6       0       4       6       6       1       77      
7       0       7       0       7       1       77      
10      0       0       0       10      1       77      
7       7       0       5       5       1       77      
9       0       7       0       7       1       77      
9       5       6       0       3       1       77      
8       2       3       3       3       1       77      
4       0       0       0       10      1       77      
4       0       4       9       7       1       77      
4       0       4       5       5       1       77      
0       0       0       0       0       0       
